     Program PWSCF v.6.4.1 starts on 14Nov2023 at 11:55:24

     R & G space division:  proc/nbgrp/npool/nimage =      36
     Waiting for input...
     Reading input from standard input
Warning: card &IONS ignored
Warning: card / ignored
Warning: card &CELL ignored
Warning: card   PRESS = 0.0, ignored
Warning: card / ignored

     Current dimensions of program PWSCF are:
     Max number of different atomic species (ntypx) = 10
     Max number of k-points (npk) =  40000
     Max angular momentum in pseudopotentials (lmaxx) =  3

     IMPORTANT: XC functional enforced from input :
     Exchange-correlation      = WC ( 1  4 11  4 0 0)
     Any further DFT definition will be discarded
     Please, verify this is what you really want

     Subspace diagonalization in iterative solution of the eigenvalue problem:
     a serial algorithm will be used

     bravais-lattice index     =            6
     lattice parameter (alat)  =       7.5395  a.u.
     unit-cell volume          =     540.0079 (a.u.)^3
     number of atoms/cell      =            4
     number of atomic types    =            2
     number of electrons       =        40.00
     number of Kohn-Sham states=           75
     kinetic-energy cutoff     =      40.0000  Ry
     charge density cutoff     =     320.0000  Ry
     convergence threshold     =      1.0E-07
     mixing beta               =       0.2000
     number of iterations used =            8  plain     mixing
     Exchange-correlation      = WC ( 1  4 11  4 0 0)

     celldm(1)=   7.539535  celldm(2)=   0.000000  celldm(3)=   1.259988
     celldm(4)=   0.000000  celldm(5)=   0.000000  celldm(6)=   0.000000

     crystal axes: (cart. coord. in units of alat)
               a(1) = (   1.000000   0.000000   0.000000 )
               a(2) = (   0.000000   1.000000   0.000000 )
               a(3) = (   0.000000   0.000000   1.259988 )

     reciprocal axes: (cart. coord. in units 2 pi/alat)
               b(1) = (  1.000000  0.000000  0.000000 )
               b(2) = (  0.000000  1.000000  0.000000 )
               b(3) = (  0.000000  0.000000  0.793658 )

     PseudoPot. # 1 for Pb read from file:
     /umbc/xfs1/bennettj/users/mlayegh1/Q-Essprss-clctns/2-ChemEd/PSP/pb_pbe_v1.uspp.F.UPF
     MD5 check sum: 3d1c1779aa92214d1e8f3a7db79003e2
     Pseudo is Ultrasoft + core correction, Zval = 14.0
     Generated by new atomic code, or converted to UPF format
     Using radial grid of  899 points,  6 beta functions with:
                l(1) =   0
                l(2) =   0
                l(3) =   1
                l(4) =   1
                l(5) =   2
                l(6) =   2
     Q(r) pseudized with  6 coefficients,  rinner =    1.000   1.000   1.000
                                                       1.000   1.000

     PseudoPot. # 2 for O  read from file:
     /umbc/xfs1/bennettj/users/mlayegh1/Q-Essprss-clctns/2-ChemEd/PSP/o_pbe_v1.2.uspp.F.UPF
     MD5 check sum: 734c27235a0248c51dbae37a1fbe46ec
     Pseudo is Ultrasoft + core correction, Zval =  6.0
     Generated by new atomic code, or converted to UPF format
     Using radial grid of  737 points,  5 beta functions with:
                l(1) =   0
                l(2) =   0
                l(3) =   1
                l(4) =   1
                l(5) =   2
     Q(r) pseudized with  8 coefficients,  rinner =    0.900   0.900   0.900
                                                       0.900   0.900

     atomic species   valence    mass     pseudopotential
        Pb            14.00   207.20000     Pb( 1.00)
        O              6.00    15.99900     O ( 1.00)

     16 Sym. Ops., with inversion, found (12 have fractional translation)

   Cartesian axes

     site n.     atom                  positions (alat units)
         1           Pb  tau(   1) = (   0.2500000   0.2500000   0.2968455  )
         2           Pb  tau(   2) = (   0.7500000   0.7500000   0.9631425  )
         3           O   tau(   3) = (   0.7500000   0.2500000   0.0000000  )
         4           O   tau(   4) = (   0.2500000   0.7500000   0.0000000  )

     number of k points=    75  gaussian smearing, width (Ry)=  0.0200
                       cart. coord. in units 2pi/alat
        k(    1) = (   0.0500000   0.0500000   0.0396829), wk =   0.0160000
        k(    2) = (   0.0500000   0.0500000   0.1190488), wk =   0.0160000
        k(    3) = (   0.0500000   0.0500000   0.1984146), wk =   0.0160000
        k(    4) = (   0.0500000   0.0500000   0.2777804), wk =   0.0160000
        k(    5) = (   0.0500000   0.0500000   0.3571463), wk =   0.0160000
        k(    6) = (   0.0500000   0.1500000   0.0396829), wk =   0.0320000
        k(    7) = (   0.0500000   0.1500000   0.1190488), wk =   0.0320000
        k(    8) = (   0.0500000   0.1500000   0.1984146), wk =   0.0320000
        k(    9) = (   0.0500000   0.1500000   0.2777804), wk =   0.0320000
        k(   10) = (   0.0500000   0.1500000   0.3571463), wk =   0.0320000
        k(   11) = (   0.0500000   0.2500000   0.0396829), wk =   0.0320000
        k(   12) = (   0.0500000   0.2500000   0.1190488), wk =   0.0320000
        k(   13) = (   0.0500000   0.2500000   0.1984146), wk =   0.0320000
        k(   14) = (   0.0500000   0.2500000   0.2777804), wk =   0.0320000
        k(   15) = (   0.0500000   0.2500000   0.3571463), wk =   0.0320000
        k(   16) = (   0.0500000   0.3500000   0.0396829), wk =   0.0320000
        k(   17) = (   0.0500000   0.3500000   0.1190488), wk =   0.0320000
        k(   18) = (   0.0500000   0.3500000   0.1984146), wk =   0.0320000
        k(   19) = (   0.0500000   0.3500000   0.2777804), wk =   0.0320000
        k(   20) = (   0.0500000   0.3500000   0.3571463), wk =   0.0320000
        k(   21) = (   0.0500000   0.4500000   0.0396829), wk =   0.0320000
        k(   22) = (   0.0500000   0.4500000   0.1190488), wk =   0.0320000
        k(   23) = (   0.0500000   0.4500000   0.1984146), wk =   0.0320000
        k(   24) = (   0.0500000   0.4500000   0.2777804), wk =   0.0320000
        k(   25) = (   0.0500000   0.4500000   0.3571463), wk =   0.0320000
        k(   26) = (   0.1500000   0.1500000   0.0396829), wk =   0.0160000
        k(   27) = (   0.1500000   0.1500000   0.1190488), wk =   0.0160000
        k(   28) = (   0.1500000   0.1500000   0.1984146), wk =   0.0160000
        k(   29) = (   0.1500000   0.1500000   0.2777804), wk =   0.0160000
        k(   30) = (   0.1500000   0.1500000   0.3571463), wk =   0.0160000
        k(   31) = (   0.1500000   0.2500000   0.0396829), wk =   0.0320000
        k(   32) = (   0.1500000   0.2500000   0.1190488), wk =   0.0320000
        k(   33) = (   0.1500000   0.2500000   0.1984146), wk =   0.0320000
        k(   34) = (   0.1500000   0.2500000   0.2777804), wk =   0.0320000
        k(   35) = (   0.1500000   0.2500000   0.3571463), wk =   0.0320000
        k(   36) = (   0.1500000   0.3500000   0.0396829), wk =   0.0320000
        k(   37) = (   0.1500000   0.3500000   0.1190488), wk =   0.0320000
        k(   38) = (   0.1500000   0.3500000   0.1984146), wk =   0.0320000
        k(   39) = (   0.1500000   0.3500000   0.2777804), wk =   0.0320000
        k(   40) = (   0.1500000   0.3500000   0.3571463), wk =   0.0320000
        k(   41) = (   0.1500000   0.4500000   0.0396829), wk =   0.0320000
        k(   42) = (   0.1500000   0.4500000   0.1190488), wk =   0.0320000
        k(   43) = (   0.1500000   0.4500000   0.1984146), wk =   0.0320000
        k(   44) = (   0.1500000   0.4500000   0.2777804), wk =   0.0320000
        k(   45) = (   0.1500000   0.4500000   0.3571463), wk =   0.0320000
        k(   46) = (   0.2500000   0.2500000   0.0396829), wk =   0.0160000
        k(   47) = (   0.2500000   0.2500000   0.1190488), wk =   0.0160000
        k(   48) = (   0.2500000   0.2500000   0.1984146), wk =   0.0160000
        k(   49) = (   0.2500000   0.2500000   0.2777804), wk =   0.0160000
        k(   50) = (   0.2500000   0.2500000   0.3571463), wk =   0.0160000
        k(   51) = (   0.2500000   0.3500000   0.0396829), wk =   0.0320000
        k(   52) = (   0.2500000   0.3500000   0.1190488), wk =   0.0320000
        k(   53) = (   0.2500000   0.3500000   0.1984146), wk =   0.0320000
        k(   54) = (   0.2500000   0.3500000   0.2777804), wk =   0.0320000
        k(   55) = (   0.2500000   0.3500000   0.3571463), wk =   0.0320000
        k(   56) = (   0.2500000   0.4500000   0.0396829), wk =   0.0320000
        k(   57) = (   0.2500000   0.4500000   0.1190488), wk =   0.0320000
        k(   58) = (   0.2500000   0.4500000   0.1984146), wk =   0.0320000
        k(   59) = (   0.2500000   0.4500000   0.2777804), wk =   0.0320000
        k(   60) = (   0.2500000   0.4500000   0.3571463), wk =   0.0320000
        k(   61) = (   0.3500000   0.3500000   0.0396829), wk =   0.0160000
        k(   62) = (   0.3500000   0.3500000   0.1190488), wk =   0.0160000
        k(   63) = (   0.3500000   0.3500000   0.1984146), wk =   0.0160000
        k(   64) = (   0.3500000   0.3500000   0.2777804), wk =   0.0160000
        k(   65) = (   0.3500000   0.3500000   0.3571463), wk =   0.0160000
        k(   66) = (   0.3500000   0.4500000   0.0396829), wk =   0.0320000
        k(   67) = (   0.3500000   0.4500000   0.1190488), wk =   0.0320000
        k(   68) = (   0.3500000   0.4500000   0.1984146), wk =   0.0320000
        k(   69) = (   0.3500000   0.4500000   0.2777804), wk =   0.0320000
        k(   70) = (   0.3500000   0.4500000   0.3571463), wk =   0.0320000
        k(   71) = (   0.4500000   0.4500000   0.0396829), wk =   0.0160000
        k(   72) = (   0.4500000   0.4500000   0.1190488), wk =   0.0160000
        k(   73) = (   0.4500000   0.4500000   0.1984146), wk =   0.0160000
        k(   74) = (   0.4500000   0.4500000   0.2777804), wk =   0.0160000
        k(   75) = (   0.4500000   0.4500000   0.3571463), wk =   0.0160000

     Check: negative core charge=   -0.000005

     Initial potential from superposition of free atoms

     starting charge   39.99529, renormalised to   40.00000

     negative rho (up, down):  3.292E-02 0.000E+00
     Starting wfcs are   26 randomized atomic wfcs +   49 random wfcs

     Self-consistent Calculation

     iteration #  1     ecut=    40.00 Ry     beta= 0.20
     Davidson diagonalization with overlap
     ethr =  1.00E-02,  avg # of iterations = 10.1

     negative rho (up, down):  3.216E-02 0.000E+00

     total energy              =    -392.39500095 Ry
     Harris-Foulkes estimate   =    -392.79438813 Ry
     estimated scf accuracy    <       1.26086597 Ry

[...]

     total energy              =    -392.48958354 Ry
     Harris-Foulkes estimate   =    -392.48958342 Ry
     estimated scf accuracy    <       0.00000175 Ry

     iteration # 10     ecut=    40.00 Ry     beta= 0.20
     Davidson diagonalization with overlap
     ethr =  4.38E-09,  avg # of iterations =  1.0

     negative rho (up, down):  3.242E-02 0.000E+00

     End of self-consistent calculation

          k = 0.0500 0.0500 0.0397 (  2324 PWs)   bands (ev):

    -9.8120  -9.2798  -7.4352  -7.4304  -7.3684  -7.3535  -7.2756  -7.2158
    -7.2063  -7.1845  -7.1754  -5.8438   1.1557   1.9565   4.2076   4.2745
     6.6836   6.7048   6.9273   8.4705  10.9084  13.5632  13.7897  14.2317
    14.9465  15.1622  16.0981  16.8019  17.6658  17.6865  18.8710  21.8743
    22.9249  23.4029  24.1872  24.3203  24.4698  24.8122  25.4920  25.6901
    26.0311  26.5383  28.1304  29.6667  31.0631  32.3687  32.4319  33.1235
    33.1761  33.8343  34.1130  34.2455  34.2456  34.2492  34.2525  34.2869
    34.3889  35.3416  35.3670  36.2327  36.5899  36.6669  37.1710  37.5317
    39.6539  39.9277  40.6657  40.9281  40.9650  41.4766  43.2307  43.7235
    44.1599  44.3516  45.0810

[...]

          k = 0.4500 0.4500 0.3571 (  2291 PWs)   bands (ev):

    -9.4493  -9.4370  -7.3157  -7.3026  -7.2669  -7.2516  -7.2478  -7.2422
    -7.2256  -7.2244  -6.3764  -6.3319   0.3090   0.3813   4.4805   4.6695
     6.3090   6.4291   7.3558   7.4544  11.8242  11.8397  12.9377  13.3994
    14.1334  14.5723  17.6883  17.6885  19.2875  19.3411  22.4811  22.6209
    23.0309  23.2413  23.6032  23.8274  25.9142  25.9580  26.5638  27.1242
    27.4762  28.0508  29.3570  29.3663  29.8889  30.0501  31.0090  31.3619
    32.8832  33.4879  34.2397  34.2419  34.2430  34.2442  34.2487  34.2490
    34.4479  34.8914  35.9950  36.1345  36.8165  37.5911  37.8749  37.8889
    38.5666  38.8603  39.6217  39.9169  40.1239  40.6261  40.7911  41.1018
    41.6383  42.2830  42.3239

     the Fermi energy is     9.1779 ev

!    total energy              =    -392.48958525 Ry
     Harris-Foulkes estimate   =    -392.48958389 Ry
     estimated scf accuracy    <       0.00000005 Ry

     The total energy is the sum of the following terms:

     one-electron contribution =    -110.53419137 Ry
     hartree contribution      =      84.62730424 Ry
     xc contribution           =    -140.94494045 Ry
     ewald contribution        =    -225.63775693 Ry
     smearing contrib. (-TS)   =      -0.00000074 Ry

     convergence has been achieved in  10 iterations

     Writing output data file PbO.save/

     General routines

     Parallel routines

   This run was terminated on:  11:59:48  14Nov2023

   JOB DONE.