     Program PWSCF v.6.4.1 starts on 19Apr2021 at 15:52:15

     R & G space division:  proc/nbgrp/npool/nimage =      16
     Waiting for input...
     Reading input from standard input
Warning: card &IONS ignored
Warning: card / ignored
Warning: card &CELL ignored
Warning: card   PRESS = 0.0, ignored
Warning: card / ignored

     Current dimensions of program PWSCF are:
     Max number of different atomic species (ntypx) = 10
     Max number of k-points (npk) =  40000
     Max angular momentum in pseudopotentials (lmaxx) =  3

     IMPORTANT: XC functional enforced from input :
     Exchange-correlation      = WC ( 1  4 11  4 0 0)
     Any further DFT definition will be discarded
     Please, verify this is what you really want

     Subspace diagonalization in iterative solution of the eigenvalue problem:
     a serial algorithm will be used

     bravais-lattice index     =            8
     lattice parameter (alat)  =      10.7061  a.u.
     unit-cell volume          =    1501.1301 (a.u.)^3
     number of atoms/cell      =           20
     number of atomic types    =            3
     number of electrons       =       128.00
     number of Kohn-Sham states=          128
     kinetic-energy cutoff     =      40.0000  Ry
     charge density cutoff     =     320.0000  Ry
     convergence threshold     =      1.0E-07
     mixing beta               =       0.2000
     number of iterations used =            8  plain     mixing
     Exchange-correlation      = WC ( 1  4 11  4 0 0)

     celldm(1)=  10.706080  celldm(2)=   0.873580  celldm(3)=   1.400310
     celldm(4)=   0.000000  celldm(5)=   0.000000  celldm(6)=   0.000000

     crystal axes: (cart. coord. in units of alat)
               a(1) = (   1.000000   0.000000   0.000000 )
               a(2) = (   0.000000   0.873580   0.000000 )
               a(3) = (   0.000000   0.000000   1.400310 )

     reciprocal axes: (cart. coord. in units 2 pi/alat)
               b(1) = (  1.000000  0.000000  0.000000 )
               b(2) = (  0.000000  1.144715  0.000000 )
               b(3) = (  0.000000  0.000000  0.714128 )

     PseudoPot. # 1 for Ca read from file:
     /home/rygrim1/bennettj_user/Work/Lead_oxides/PbCO3_14/Surface_calcs/QE_calcs/QE-PSPs/ca_pbe_v1.uspp.F.UPF
     MD5 check sum: 403a4c14b9e4d4dfdc3024c9a3812218
     Pseudo is Ultrasoft + core correction, Zval = 10.0
     Generated by new atomic code, or converted to UPF format
     Using radial grid of  845 points,  6 beta functions with:
                l(1) =   0
                l(2) =   0
                l(3) =   1
                l(4) =   1
                l(5) =   2
                l(6) =   2
     Q(r) pseudized with  8 coefficients,  rinner =    1.500   1.500   1.500
                                                       1.500   1.500

     PseudoPot. # 2 for C  read from file:
     /home/rygrim1/bennettj_user/Work/Lead_oxides/PbCO3_14/Surface_calcs/QE_calcs/QE-PSPs/c_pbe_v1.2.uspp.F.UPF
     MD5 check sum: d1aef80898a10debaa0f26306b886e00
     Pseudo is Ultrasoft + core correction, Zval =  4.0
     Generated by new atomic code, or converted to UPF format
     Using radial grid of  721 points,  4 beta functions with:
                l(1) =   0
                l(2) =   0
                l(3) =   1
                l(4) =   1
     Q(r) pseudized with  8 coefficients,  rinner =    1.100   1.100   1.100

     PseudoPot. # 3 for O  read from file:
     /home/rygrim1/bennettj_user/Work/Lead_oxides/PbCO3_14/Surface_calcs/QE_calcs/QE-PSPs/o_pbe_v1.2.uspp.F.UPF
     MD5 check sum: 734c27235a0248c51dbae37a1fbe46ec
     Pseudo is Ultrasoft + core correction, Zval =  6.0
     Generated by new atomic code, or converted to UPF format
     Using radial grid of  737 points,  5 beta functions with:
                l(1) =   0
                l(2) =   0
                l(3) =   1
                l(4) =   1
                l(5) =   2
     Q(r) pseudized with  8 coefficients,  rinner =    0.900   0.900   0.900
                                                       0.900   0.900

     atomic species   valence    mass     pseudopotential
        Ca            10.00    40.07800     Ca( 1.00)
        C              4.00    12.01100     C ( 1.00)
        O              6.00    15.99990     O ( 1.00)

      8 Sym. Ops., with inversion, found ( 6 have fractional translation)

   Cartesian axes

     site n.     atom                  positions (alat units)
         1           Ca  tau(   1) = (  -0.2405356   0.6551850  -0.8190119  )
         2           O   tau(   2) = (  -0.0969743   0.6551850  -0.1061225  )
         3           O   tau(   3) = (  -0.0889127  -0.0209929  -0.4486206  )
         4           O   tau(   4) = (  -0.0889127   0.4577829  -0.4486206  )
         5           C   tau(   5) = (  -0.0865101   0.6551850  -0.3330558  )
         6           O   tau(   6) = (   0.0889127   0.0209929   0.4486206  )
         7           C   tau(   7) = (   0.0865101   0.2183950   0.3330558  )
         8           O   tau(   8) = (   0.0889127   0.4157971   0.4486206  )
         9           O   tau(   9) = (   0.0969743   0.2183950   0.1061225  )
        10           Ca  tau(  10) = (   0.2405356   0.2183950   0.8190119  )
        11           Ca  tau(  11) = (   0.2594644   0.6551850   1.5191669  )
        12           O   tau(  12) = (   0.4030257   0.6551850   0.8062775  )
        13           O   tau(  13) = (   0.4110873  -0.0209929   1.1487756  )
        14           O   tau(  14) = (   0.4110873   0.4577829   1.1487756  )
        15           C   tau(  15) = (   0.4134899   0.6551850   1.0332108  )
        16           O   tau(  16) = (   0.5889127   0.0209929   0.2515344  )
        17           C   tau(  17) = (   0.5865101   0.2183950   0.3670992  )
        18           O   tau(  18) = (   0.5889127   0.4157971   0.2515344  )
        19           O   tau(  19) = (   0.5969743   0.2183950   0.5940325  )
        20           Ca  tau(  20) = (   0.7405356   0.2183950  -0.1188569  )

     number of k points=    27  gaussian smearing, width (Ry)=  0.0100
                       cart. coord. in units 2pi/alat
        k(    1) = (   0.0833333   0.0953929   0.0595106), wk =   0.0740741
        k(    2) = (   0.0833333   0.0953929   0.1785319), wk =   0.0740741
        k(    3) = (   0.0833333   0.0953929   0.2975532), wk =   0.0740741
        k(    4) = (   0.0833333   0.2861787   0.0595106), wk =   0.0740741
        k(    5) = (   0.0833333   0.2861787   0.1785319), wk =   0.0740741
        k(    6) = (   0.0833333   0.2861787   0.2975532), wk =   0.0740741
        k(    7) = (   0.0833333   0.4769645   0.0595106), wk =   0.0740741
        k(    8) = (   0.0833333   0.4769645   0.1785319), wk =   0.0740741
        k(    9) = (   0.0833333   0.4769645   0.2975532), wk =   0.0740741
        k(   10) = (   0.2500000   0.0953929   0.0595106), wk =   0.0740741
        k(   11) = (   0.2500000   0.0953929   0.1785319), wk =   0.0740741
        k(   12) = (   0.2500000   0.0953929   0.2975532), wk =   0.0740741
        k(   13) = (   0.2500000   0.2861787   0.0595106), wk =   0.0740741
        k(   14) = (   0.2500000   0.2861787   0.1785319), wk =   0.0740741
        k(   15) = (   0.2500000   0.2861787   0.2975532), wk =   0.0740741
        k(   16) = (   0.2500000   0.4769645   0.0595106), wk =   0.0740741
        k(   17) = (   0.2500000   0.4769645   0.1785319), wk =   0.0740741
        k(   18) = (   0.2500000   0.4769645   0.2975532), wk =   0.0740741
        k(   19) = (   0.4166667   0.0953929   0.0595106), wk =   0.0740741
        k(   20) = (   0.4166667   0.0953929   0.1785319), wk =   0.0740741
        k(   21) = (   0.4166667   0.0953929   0.2975532), wk =   0.0740741
        k(   22) = (   0.4166667   0.2861787   0.0595106), wk =   0.0740741
        k(   23) = (   0.4166667   0.2861787   0.1785319), wk =   0.0740741
        k(   24) = (   0.4166667   0.2861787   0.2975532), wk =   0.0740741
        k(   25) = (   0.4166667   0.4769645   0.0595106), wk =   0.0740741
        k(   26) = (   0.4166667   0.4769645   0.1785319), wk =   0.0740741
        k(   27) = (   0.4166667   0.4769645   0.2975532), wk =   0.0740741

     Check: negative core charge=   -0.000002

     Initial potential from superposition of free atoms

     starting charge  127.97799, renormalised to  128.00000
     Starting wfcs are  104 randomized atomic wfcs +   24 random wfcs

     Self-consistent Calculation

     iteration #  1     ecut=    40.00 Ry     beta= 0.20
     Davidson diagonalization with overlap
     ethr =  1.00E-02,  avg # of iterations =  4.4

     total energy              =    -733.80890488 Ry
     Harris-Foulkes estimate   =    -734.57282975 Ry
     estimated scf accuracy    <       2.71545071 Ry

[...]

     total energy              =    -733.79927485 Ry
     Harris-Foulkes estimate   =    -733.79927268 Ry
     estimated scf accuracy    <       0.00000020 Ry

     iteration # 11     ecut=    40.00 Ry     beta= 0.20
     Davidson diagonalization with overlap
     ethr =  1.55E-10,  avg # of iterations =  2.0

     End of self-consistent calculation

          k = 0.0833 0.0954 0.0595 (  6426 PWs)   bands (ev):

   -32.2056 -32.1958 -32.1921 -32.1866 -16.3027 -16.2216 -15.9821 -15.8030
   -13.8612 -13.7030 -13.6744 -13.5433 -13.5071 -13.3626 -13.3098 -13.2869
   -13.2711 -13.2587 -13.1793 -13.1318 -12.5921 -12.5593 -12.5039 -12.4925
   -12.4551 -12.4006 -12.2778 -12.1783  -2.4382  -1.9425  -1.7069  -1.7048
    -1.2901  -1.0489  -0.3875  -0.3459  -0.0906   0.0012   0.0269   0.1163
     0.3412   0.3812   1.2477   1.4453   2.7928   3.1264   3.1633   3.3929
     3.5259   3.7075   3.8251   3.9414   4.0670   4.1758   4.2894   4.3276
     4.4478   4.6786   4.7081   4.7477   4.8956   5.5235   5.7652   5.8667
    10.1583  10.7893  11.3577  11.8784  12.2926  12.3806  12.4959  12.5662
    12.9176  13.0584  13.1332  13.1967  13.2906  13.4167  13.5143  13.5406
    13.8686  13.9215  13.9906  14.0489  14.1017  14.2451  14.2944  14.3782
    14.4831  14.5810  16.2410  16.3936  16.5863  17.2132  17.2807  18.1756
    18.3073  18.8628  19.0233  19.1541  19.2882  19.6390  19.7419  19.9589
    20.0431  20.1106  20.4773  20.9069  21.0650  21.1665  21.3315  21.4474
    21.5019  21.6341  21.6687  21.8100  22.0286  22.2023  22.6990  22.9889
    23.2517  23.4334  23.5258  23.8627  24.5125  24.8291  24.8972  25.3160

[...]

          k = 0.4167 0.4770 0.2976 (  6421 PWs)   bands (ev):

   -32.1959 -32.1956 -32.1935 -32.1933 -16.1422 -16.1403 -16.0186 -16.0127
   -13.7842 -13.7473 -13.6784 -13.6450 -13.5874 -13.5333 -13.4853 -13.4163
   -13.1986 -13.1948 -13.1422 -13.1360 -12.5442 -12.4709 -12.4316 -12.4189
   -12.3796 -12.3157 -12.2924 -12.2332  -1.5304  -1.4912  -1.4372  -1.4244
    -0.5284  -0.5158  -0.4021  -0.3527  -0.1869  -0.1786   0.1398   0.1447
     0.1987   0.2213   0.3818   0.3920   2.9743   2.9962   3.0588   3.0936
     3.6123   3.6416   3.7755   3.8175   3.9572   3.9727   4.1804   4.1935
     4.2621   4.2790   4.4527   4.4661   5.1569   5.2201   5.2573   5.3097
    11.0974  11.1167  11.3812  11.4239  12.4200  12.4412  12.6126  12.6258
    13.2006  13.2577  13.3386  13.3639  13.5616  13.5754  13.6087  13.6269
    13.7658  13.7998  13.8519  13.8708  14.4435  14.4588  14.5122  14.5245
    15.1236  15.3764  16.0308  16.1862  16.6090  16.7004  16.9685  17.1135
    18.4257  18.5817  18.8769  18.9855  19.2504  19.4732  19.7427  19.7543
    20.7078  20.8283  21.0611  21.1218  21.4730  21.5561  21.6824  21.7434
    22.3117  22.3369  22.5032  22.5378  22.6113  22.6694  22.7098  22.8117
    23.2886  23.3517  23.6060  23.6588  24.1399  24.2269  24.7667  24.8101

     the Fermi energy is     7.4837 ev

!    total energy              =    -733.79927876 Ry
     Harris-Foulkes estimate   =    -733.79927489 Ry
     estimated scf accuracy    <          7.4E-09 Ry

     The total energy is the sum of the following terms:

     one-electron contribution =    -236.57041265 Ry
     hartree contribution      =     182.63081482 Ry
     xc contribution           =    -149.45742531 Ry
     ewald contribution        =    -530.40225562 Ry
     smearing contrib. (-TS)   =      -0.00000000 Ry

     convergence has been achieved in  11 iterations

     Writing output data file CaCO3.save/

     General routines

     Parallel routines

   This run was terminated on:  15:53:22  19Apr2021

   JOB DONE.